178
0 36 23 176 145 48 30 78 25 8 
133 99 4 42 168 53 123 95 70 43 
137 66 20 54 91 97 119 159 132 24 
144 165 21 84 164 98 28 142 110 86 
1 59 55 169 102 19 156 134 129 60 
35 50 10 2 51 72 83 3 92 17 
113 100 58 136 139 130 163 44 173 76 
128 65 121 31 26 175 120 69 80 111 
103 151 22 12 89 56 14 118 174 94 
155 15 73 40 5 122 68 93 117 81 
157 38 33 41 146 106 6 143 45 177 
107 160 170 101 62 34 105 141 131 87 
64 74 88 104 13 63 115 18 82 147 
61 114 49 167 135 116 112 150 138 47 
162 126 125 140 37 148 85 75 77 16 
127 32 108 158 79 90 52 57 46 109 
9 7 149 11 71 96 39 27 153 172 
171 124 29 152 166 67 161 154 
